n_res = 4;
rcap = [29, 27, 128, 120];
rtype = [1, 1, 2, 2];
n_tasks = 20;
modes = [ {1, 2, 3}, {4, 5, 6}, {7, 8, 9}, {10, 11, 12}, {13, 14, 15}, {16, 17, 18}, {19, 20, 21}, {22, 23, 24}, {25, 26, 27}, {28, 29, 30}, {31, 32, 33}, {34, 35, 36}, {37, 38, 39}, {40, 41, 42}, {43, 44, 45}, {46, 47, 48}, {49, 50, 51}, {52, 53, 54}, {55, 56, 57}, {58, 59, 60} ];
succ = [ {4, 7, 9}, {8, 10, 18}, {5, 8, 9}, {16, 19}, {6, 13, 17}, {7, 15, 20}, {12}, {11, 17}, {13, 17}, {11, 20}, {14}, {14, 16}, {15, 16, 19}, {19}, {18}, {18}, {20}, {}, {}, {} ];
n_opt = 60;
dur = [1, 4, 4, 3, 4, 6, 2, 4, 10, 1, 1, 9, 3, 5, 9, 3, 6, 10, 3, 3, 10, 2, 2, 9, 1, 5, 6, 3, 5, 8, 4, 6, 7, 5, 7, 7, 3, 9, 10, 4, 4, 6, 5, 5, 6, 4, 5, 8, 1, 5, 8, 2, 3, 4, 4, 7, 8, 5, 6, 9];
rreq = [|  8,  8,  6,  5,  4,  4,  8,  6,  5,  5,  5,  4,  5,  3,  3,  9,  7,  5, 10, 10,  5,  7,  7,  6,  8,  7,  6,  7,  5,  2, 10,  9,  9,  6,  5,  3,  8,  8,  7,  9,  9,  9,  3,  4,  3,  9,  8,  8,  5,  4,  1, 10,  8,  3,  6,  6,  4,  5,  5,  5
        | 10, 10,  9,  5,  5,  5,  5,  4,  4,  9,  9,  8,  8,  7,  7,  9,  8,  8,  5,  5,  5,  5,  4,  4,  7,  4,  1,  6,  6,  5,  6,  6,  6,  7,  5,  5,  9,  9,  8,  4,  3,  2,  6,  5,  4, 10,  7,  5,  3,  3,  2,  6,  5,  2,  2,  1,  1,  5,  5,  5
        |  7,  5,  7,  7,  6,  6,  9,  9,  9,  5,  4,  2,  8,  6,  3,  8,  6,  4,  7,  6,  6,  8,  8,  7,  6,  6,  5,  8,  6,  4,  5,  4,  4,  8,  4,  3,  5,  4,  4,  8,  9,  8,  1,  1,  1,  6,  5,  4, 10,  7,  7,  3,  2,  2,  8,  5,  4, 10,  9,  9
        |  5,  4,  4,  8,  8,  5,  3,  2,  1,  5,  6,  5,  4,  4,  4,  7,  4,  3,  5,  7,  1,  5,  6,  3,  7,  6,  4,  9,  9,  8,  5,  4,  3,  6,  2,  4,  8,  8,  7,  5,  5,  5,  8,  8,  6,  6,  5,  5,  7,  4,  3,  8,  8,  7, 10,  9,  9,  5,  5,  4 |];
